Route #1: 20 24 25 27 29 30 28 26 23 22 21
Route #2: 5 3 7 8 10 11 9 6 4 2 1
Route #3: 43 42 41 40 44 46 45 48 50 49 47
Route #4: 13 17 18 19 15 16 14 12
Route #5: 32 33 31 35 37 38 39 36 34
Cost 28868.3